\* Problem: Unknown *\

Maximize
 obj: + xp_0_0 + xp_0_1 + xp_0_2 + xp_0_3 + xp_1_0 + xp_1_1 + xp_1_2
 + xp_1_3 + xp_1_4 + xp_1_5 + xp_1_6 + xp_1_7 + xp_1_8 + xp_1_9 + xp_2_0
 + xp_2_1 + xp_2_2 + xp_2_3 + xp_2_4 + xp_2_5 + xp_2_6 + xp_2_7 + xp_2_8
 + xp_3_0 + xp_3_1 + xp_3_2 + xp_3_3 + xp_3_4 + xp_3_5 + xp_3_6 + xp_3_7
 + xp_4_0 + xp_4_1 + xp_5_0 + xp_5_1 + xp_5_2 + xp_5_3 + xp_6_0 + xp_6_1
 + xp_6_2 + xp_7_0 + xp_8_0 + xp_8_1 + xp_8_2 + xp_9_0 + xp_9_1 + xp_9_2
 + xp_9_3 + xp_10_0 + xp_10_1 + xp_10_2 + xp_10_3 + xp_10_4 + xp_10_5
 + xp_11_0 + xp_11_1 + xp_11_2 + xp_12_0 + xp_12_1 + xp_12_2 + xp_13_0
 + xp_13_1 + xp_13_2 + xp_13_3 + xp_14_0 + xp_14_1 + xp_14_2 + xp_14_3
 + xp_14_4 + xp_14_5 + xp_14_6 + xp_14_7 + xp_14_8 + xp_14_9 + xp_15_0
 + xp_15_1 + xp_15_2 + xp_15_3 + xp_16_0 + xp_16_1 + xp_16_2 + xp_17_0
 + xp_17_1 + xp_17_2 + xp_17_3 + xp_17_4 + xp_17_5 + xp_17_6 + xp_18_0
 + xp_18_1 + xp_18_2 + xp_18_3 + xp_19_0 + xp_19_1 + xp_19_2 + xp_19_3
 + xp_19_4 + xp_19_5 + xp_19_6 + xp_19_7 + xp_19_8 + xp_19_9 + xp_19_10
 + xp_19_11 + xp_19_12 + xp_20_0 + xp_20_1 + xp_20_2 + xp_20_3 + xp_20_4
 + xp_20_5 + xp_20_6 + xp_21_0 + xp_21_1 + xp_21_2 + xp_21_3

Subject To
 r_1: + xp_20_0 <= 0.862348178137652
 r_2: + xp_20_6 + xp_10_0 + xp_2_1 <= 0.849151234567901
 r_3: + xp_20_4 + xp_11_2 + xp_10_5 + xp_10_3 + xp_4_1
 <= 0.838421658986175
 r_4: + xp_20_2 + xp_19_6 + xp_18_1 + xp_11_1 + xp_10_2
 <= 0.847761194029851
 r_5: + xp_21_3 + xp_20_5 + xp_10_4 + xp_3_2 <= 0.841987179487179
 r_6: + xp_19_11 + xp_11_0 <= 0.841987179487179
 r_7: + xp_20_3 + xp_19_9 + xp_14_9 + xp_10_1 <= 0.847761194029851
 r_8: + xp_20_1 <= 0.839243498817967
 r_9: + xp_2_0 + xp_1_8 <= 0.849151234567901
 r_10: 0 xp_0_0 <= 0.838421658986175
 r_11: + xp_0_1 <= 0.847761194029851
 r_12: 0 xp_0_0 <= 0.839243498817967
 r_13: + xp_12_1 <= 0.841987179487179
 r_14: 0 xp_0_0 <= 0.847761194029851
 r_15: + xp_3_3 + xp_1_9 <= 0.841987179487179
 r_16: + xp_13_2 <= 0.862348178137652
 r_17: + xp_9_3 <= 0.862348178137652
 r_18: + xp_19_1 + xp_12_2 <= 0.841987179487179
 r_19: + xp_17_3 + xp_15_3 + xp_14_1 <= 0.862348178137652
 r_20: + xp_2_7 + xp_1_2 <= 0.846459537572254
 r_21: 0 xp_0_0 <= 0.838421658986175
 r_22: + xp_2_4 + xp_0_3 <= 0.847761194029851
 r_23: 0 xp_0_0 <= 0.839243498817967
 r_24: 0 xp_0_0 <= 0.839243498817967
 r_25: 0 xp_0_0 <= 0.841987179487179
 r_26: + xp_17_0 + xp_14_4 <= 0.841987179487179
 r_27: + xp_20_5 + xp_17_3 + xp_1_9 + xp_1_7 + xp_1_0
 <= 0.846459537572254
 r_28: 0 xp_0_0 <= 0.838421658986175
 r_29: + xp_17_1 + xp_14_7 + xp_10_4 + xp_5_1 + xp_2_3
 <= 0.849151234567901
 r_30: + xp_19_4 + xp_18_3 + xp_17_4 + xp_17_2 <= 0.847761194029851
 r_31: + xp_17_6 + xp_0_2 <= 0.847761194029851
 r_32: + xp_19_12 + xp_19_9 + xp_19_8 + xp_19_0 + xp_17_5 + xp_11_2
 + xp_6_2 <= 0.841987179487179
 r_33: + xp_21_2 + xp_13_1 + xp_3_7 + xp_1_3 <= 0.846459537572254
 r_34: + xp_13_0 <= 0.841987179487179
 r_35: + xp_17_5 + xp_17_4 + xp_13_2 <= 0.841987179487179
 r_36: + xp_21_1 + xp_13_3 + xp_2_6 <= 0.847761194029851
 r_37: + xp_21_3 + xp_9_2 <= 0.841987179487179
 r_38: 0 xp_0_0 <= 0.839243498817967
 r_39: + xp_21_0 + xp_3_1 <= 0.841987179487179
 r_40: + xp_19_10 <= 0.847761194029851
 r_41: 0 xp_0_0 <= 0.849151234567901
 r_42: + xp_17_1 + xp_15_2 + xp_14_8 + xp_14_7 + xp_14_5 + xp_14_2
 + xp_8_1 <= 0.849151234567901
 r_43: + xp_20_6 + xp_1_8 + xp_1_6 <= 0.846459537572254
 r_44: 0 xp_0_0 <= 0.838421658986175
 r_45: + xp_19_12 <= 0.849151234567901
 r_46: 0 xp_0_0 <= 0.847761194029851
 r_47: + xp_19_7 + xp_6_0 <= 0.846459537572254
 r_48: + xp_19_3 + xp_18_2 + xp_14_5 + xp_6_1 + xp_5_3
 <= 0.847761194029851
 r_49: 0 xp_0_0 <= 0.838421658986175
 r_50: + xp_20_6 + xp_20_5 + xp_20_3 + xp_17_3 + xp_16_2 + xp_16_1
 + xp_13_1 <= 0.846459537572254
 r_51: + xp_21_2 + xp_6_2 + xp_5_1 + xp_3_7 <= 0.846459537572254
 r_52: + xp_5_0 + xp_2_8 + xp_2_7 <= 0.846459537572254
 r_53: + xp_5_2 <= 0.847761194029851
 r_54: + xp_14_5 + xp_10_2 + xp_8_1 + xp_5_3 + xp_2_6 + xp_2_4
 <= 0.847761194029851
 r_55: + xp_16_1 + xp_7_0 <= 0.847761194029851
 r_56: + xp_19_10 + xp_19_6 + xp_19_5 + xp_19_4 + xp_19_3 + xp_17_4
 + xp_11_1 + xp_6_1 <= 0.847761194029851
 r_57: 0 xp_0_0 <= 0.847761194029851
 r_58: + xp_17_2 + xp_15_1 + xp_14_6 + xp_8_0 <= 0.847761194029851
 r_59: + xp_20_2 + xp_16_0 + xp_15_3 + xp_13_3 <= 0.847761194029851
 r_60: + xp_21_1 <= 0.847761194029851
 r_61: + xp_16_2 + xp_8_2 + xp_0_3 <= 0.847761194029851
 r_62: + xp_19_7 + xp_19_3 + xp_18_2 + xp_14_5 + xp_2_8 + xp_1_1
 <= 0.838421658986175
 r_63: + xp_19_11 + xp_19_9 + xp_19_6 + xp_18_1 + xp_14_9 + xp_9_1
 <= 0.838421658986175
 r_64: + xp_14_0 <= 0.838421658986175
 r_65: + xp_20_4 + xp_19_1 + xp_14_1 <= 0.838421658986175
 r_66: + xp_19_4 + xp_19_0 + xp_18_3 + xp_14_7 + xp_11_2 + xp_3_6
 <= 0.838421658986175
 r_67: + xp_19_12 + xp_19_10 + xp_14_2 + xp_10_3 + xp_2_2 + xp_1_6
 <= 0.838421658986175
 r_68: + xp_19_8 + xp_19_5 + xp_18_0 + xp_14_8 + xp_14_6 + xp_14_4
 + xp_14_3 + xp_10_5 + xp_3_4 + xp_1_5 <= 0.847761194029851
 r_69: + xp_19_2 <= 0.839243498817967
 r_70: 0 xp_0_0 <= 0.839243498817967
 r_71: + xp_17_6 + xp_15_0 + xp_14_9 + xp_14_3 + xp_8_2
 <= 0.847761194029851
 r_72: + xp_4_1 <= 0.847761194029851
 r_73: + xp_19_9 + xp_19_8 + xp_14_4 + xp_3_5 + xp_3_4 + xp_1_7
 <= 0.847761194029851
 r_74: + xp_15_2 + xp_14_8 + xp_10_5 + xp_10_1 + xp_5_2 + xp_2_5
 <= 0.847761194029851
 r_75: + xp_20_3 + xp_16_2 + xp_1_5 + xp_1_4 <= 0.847761194029851
 r_76: + xp_19_5 + xp_18_0 + xp_15_3 + xp_15_1 + xp_14_6
 <= 0.847761194029851
 r_77: + xp_4_0 <= 0.847761194029851
 r_78: + xp_3_0 + xp_2_3 + xp_1_0 + xp_0_2 <= 0.839243498817967
 r_79: + xp_3_5 + xp_2_5 + xp_1_7 + xp_1_4 + xp_0_0 <= 0.839243498817967
 r_80: + xp_12_1 + xp_3_3 + xp_2_0 + xp_1_9 + xp_1_8 + xp_0_1
 <= 0.839243498817967
 r_81: + xp_9_0 + xp_3_2 + xp_2_1 <= 0.839243498817967
 r_82: + xp_20_1 + xp_12_2 + xp_9_3 + xp_2_7 + xp_2_4 + xp_1_2 + xp_0_3
 <= 0.839243498817967
 r_83: + xp_19_2 + xp_12_0 + xp_9_2 + xp_3_7 + xp_3_1 + xp_2_6 + xp_1_3
 <= 0.839243498817967
 r_84: + xp_9_1 + xp_3_6 + xp_3_4 + xp_2_8 + xp_2_2 + xp_1_6 + xp_1_5
 + xp_1_1 <= 0.839243498817967

Bounds
 0 <= xp_0_0 <= 0.4
 0 <= xp_0_1 <= 0.0666666666666667
 0 <= xp_0_2 <= 0.4
 0 <= xp_0_3 <= 0.0666666666666667
 0 <= xp_1_0 <= 0.2
 0 <= xp_1_1 <= 0.333333333333333
 0 <= xp_1_2 <= 0.4
 0 <= xp_1_3 <= 0.1
 0 <= xp_1_4 <= 0.1
 0 <= xp_1_5 <= 0.0333333333333333
 0 <= xp_1_6 <= 0.0333333333333333
 0 <= xp_1_7 <= 0.1
 0 <= xp_1_8 <= 0.0333333333333333
 0 <= xp_1_9 <= 0.0666666666666667
 0 <= xp_2_0 <= 0.433333333333333
 0 <= xp_2_1 <= 0.133333333333333
 0 <= xp_2_2 <= 0.233333333333333
 0 <= xp_2_3 <= 0.1
 0 <= xp_2_4 <= 0.2
 0 <= xp_2_5 <= 0.0666666666666667
 0 <= xp_2_6 <= 0.1
 0 <= xp_2_7 <= 0.0666666666666667
 0 <= xp_2_8 <= 0.0666666666666667
 0 <= xp_3_0 <= 0.266666666666667
 0 <= xp_3_1 <= 0.0666666666666667
 0 <= xp_3_2 <= 0.533333333333333
 0 <= xp_3_3 <= 0.333333333333333
 0 <= xp_3_4 <= 0.0666666666666667
 0 <= xp_3_5 <= 0.333333333333333
 0 <= xp_3_6 <= 0.0666666666666667
 0 <= xp_3_7 <= 0.2
 0 <= xp_4_0 <= 0.4
 0 <= xp_4_1 <= 0.0666666666666667
 0 <= xp_5_0 <= 0.533333333333333
 0 <= xp_5_1 <= 0.133333333333333
 0 <= xp_5_2 <= 0.2
 0 <= xp_5_3 <= 0.0666666666666667
 0 <= xp_6_0 <= 0.666666666666667
 0 <= xp_6_1 <= 0.2
 0 <= xp_6_2 <= 0.0666666666666667
 0 <= xp_7_0 <= 0.466666666666667
 0 <= xp_8_0 <= 0.333333333333333
 0 <= xp_8_1 <= 0.0666666666666667
 0 <= xp_8_2 <= 0.0666666666666667
 0 <= xp_9_0 <= 0.266666666666667
 0 <= xp_9_1 <= 0.1
 0 <= xp_9_2 <= 0.0666666666666667
 0 <= xp_9_3 <= 0.0333333333333333
 0 <= xp_10_0 <= 0.666666666666667
 0 <= xp_10_1 <= 0.266666666666667
 0 <= xp_10_2 <= 0.166666666666667
 0 <= xp_10_3 <= 0.133333333333333
 0 <= xp_10_4 <= 0.133333333333333
 0 <= xp_10_5 <= 0.0333333333333333
 0 <= xp_11_0 <= 0.8
 0 <= xp_11_1 <= 0.0666666666666667
 0 <= xp_11_2 <= 0.0666666666666667
 0 <= xp_12_0 <= 0.366666666666667
 0 <= xp_12_1 <= 0.0333333333333333
 0 <= xp_12_2 <= 0.0666666666666667
 0 <= xp_13_0 <= 0.866666666666667
 0 <= xp_13_1 <= 0.2
 0 <= xp_13_2 <= 0.733333333333333
 0 <= xp_13_3 <= 0.0666666666666667
 0 <= xp_14_0 <= 0.966666666666667
 0 <= xp_14_1 <= 0.533333333333333
 0 <= xp_14_2 <= 0.333333333333333
 0 <= xp_14_3 <= 0.2
 0 <= xp_14_4 <= 0.0333333333333333
 0 <= xp_14_5 <= 0.0666666666666667
 0 <= xp_14_6 <= 0.0333333333333333
 0 <= xp_14_7 <= 0.0666666666666667
 0 <= xp_14_8 <= 0.0666666666666667
 0 <= xp_14_9 <= 0.0333333333333333
 0 <= xp_15_0 <= 0.533333333333333
 0 <= xp_15_1 <= 0.266666666666667
 0 <= xp_15_2 <= 0.0666666666666667
 0 <= xp_15_3 <= 0.0666666666666667
 0 <= xp_16_0 <= 0.333333333333333
 0 <= xp_16_1 <= 0.0666666666666667
 0 <= xp_16_2 <= 0.0666666666666667
 0 <= xp_17_0 <= 0.866666666666667
 0 <= xp_17_1 <= 0.166666666666667
 0 <= xp_17_2 <= 0.2
 0 <= xp_17_3 <= 0.0333333333333333
 0 <= xp_17_4 <= 0.0333333333333333
 0 <= xp_17_5 <= 0.0666666666666667
 0 <= xp_17_6 <= 0.0333333333333333
 0 <= xp_18_0 <= 0.133333333333333
 0 <= xp_18_1 <= 0.133333333333333
 0 <= xp_18_2 <= 0.0666666666666667
 0 <= xp_18_3 <= 0.133333333333333
 0 <= xp_19_0 <= 0.4
 0 <= xp_19_1 <= 0.133333333333333
 0 <= xp_19_2 <= 0.0333333333333333
 0 <= xp_19_3 <= 0.133333333333333
 0 <= xp_19_4 <= 0.0666666666666667
 0 <= xp_19_5 <= 0.1
 0 <= xp_19_6 <= 0.0666666666666667
 0 <= xp_19_7 <= 0.133333333333333
 0 <= xp_19_8 <= 0.0333333333333333
 0 <= xp_19_9 <= 0.0666666666666667
 0 <= xp_19_10 <= 0.0666666666666667
 0 <= xp_19_11 <= 0.133333333333333
 0 <= xp_19_12 <= 0.0333333333333333
 0 <= xp_20_0 <= 1
 0 <= xp_20_1 <= 0.133333333333333
 0 <= xp_20_2 <= 0.4
 0 <= xp_20_3 <= 0.4
 0 <= xp_20_4 <= 0.3
 0 <= xp_20_5 <= 0.0666666666666667
 0 <= xp_20_6 <= 0.0333333333333333
 0 <= xp_21_0 <= 0.666666666666667
 0 <= xp_21_1 <= 0.5
 0 <= xp_21_2 <= 0.166666666666667
 0 <= xp_21_3 <= 0.0666666666666667

End
